750
1 0 5 718 1 748 1 734 1 733 1 732 1
2 0 5 522 1 533 1 537 1 458 1 706 1
3 0 5 127 1 175 1 276 1 411 1 499 1
4 0 5 199 1 648 1 341 1 476 1 48 1
5 0 5 234 1 239 1 110 1 219 1 156 1
6 0 5 687 1 324 1 308 1 84 1 504 1
7 0 5 562 1 388 1 338 1 381 1 423 1
8 0 5 211 1 541 1 55 1 251 1 322 1
9 0 5 76 1 678 1 137 1 343 1 102 1
10 0 5 146 1 691 1 283 1 693 1 373 1
11 0 5 390 1 286 1 504 1 448 1 84 1
12 0 5 330 1 567 1 675 1 325 1 699 1
13 0 5 632 1 372 1 532 1 259 1 70 1
14 0 5 449 1 458 1 559 1 706 1 339 1
15 0 5 265 1 656 1 350 1 723 1 729 1
16 0 5 636 1 21 1 707 1 32 1 272 1
17 0 5 154 1 44 1 266 1 600 1 254 1
18 0 5 126 1 574 1 141 1 525 1 521 1
19 0 5 201 1 542 1 36 1 303 1 122 1
20 0 5 411 1 276 1 359 1 499 1 230 1
21 0 5 16 1 636 1 32 1 707 1 628 1
22 0 5 106 1 192 1 653 1 597 1 690 1
23 0 5 445 1 415 1 173 1 510 1 210 1
24 0 5 151 1 703 1 150 1 116 1 486 1
25 0 5 103 1 451 1 260 1 407 1 347 1
26 0 5 248 1 344 1 459 1 339 1 25 1
27 0 5 278 1 390 1 252 1 695 1 169 1
28 0 5 597 1 22 1 449 1 106 1 390 1
29 0 5 620 1 429 1 435 1 476 1 648 1
30 0 5 383 1 205 1 89 1 242 1 675 1
31 0 5 620 1 570 1 187 1 435 1 599 1
32 0 5 110 1 272 1 16 1 21 1 5 1
33 0 5 369 1 256 1 370 1 135 1 564 1
34 0 5 109 1 614 1 196 1 484 1 166 1
35 0 5 426 1 107 1 641 1 528 1 474 1
36 0 5 463 1 71 1 201 1 19 1 49 1
37 0 5 225 1 393 1 716 1 627 1 468 1
38 0 5 262 1 431 1 188 1 611 1 178 1
39 0 5 691 1 244 1 654 1 399 1 153 1
40 0 5 57 1 615 1 218 1 382 1 149 1
41 0 5 683 1 245 1 625 1 622 1 615 1
42 0 5 502 1 277 1 488 1 506 1 194 1
43 0 5 170 1 362 1 132 1 289 1 700 1
44 0 5 17 1 154 1 172 1 600 1 163 1
45 0 5 253 1 674 1 561 1 676 1 334 1
46 0 5 406 1 710 1 701 1 544 1 694 1
47 0 5 409 1 471 1 75 1 405 1 224 1
48 0 5 476 1 160 1 648 1 429 1 312 1
49 0 5 122 1 465 1 542 1 36 1 380 1
50 0 5 162 1 393 1 716 1 71 1 463 1
51 0 5 532 1 629 1 181 1 688 1 258 1
52 0 5 428 1 494 1 594 1 375 1 176 1
53 0 5 194 1 506 1 84 1 687 1 502 1
54 0 5 86 1 379 1 446 1 518 1 439 1
55 0 5 322 1 469 1 8 1 589 1 18 1
56 0 5 198 1 657 1 433 1 273 1 579 1
57 0 5 40 1 218 1 499 1 67 1 382 1
58 0 5 619 1 452 1 640 1 185 1 92 1
59 0 5 351 1 420 1 715 1 371 1 112 1
60 0 5 611 1 506 1 262 1 188 1 433 1
61 0 5 624 1 439 1 86 1 442 1 206 1
62 0 5 318 1 371 1 420 1 417 1 705 1
63 0 5 484 1 508 1 493 1 109 1 472 1
64 0 5 267 1 518 1 366 1 523 1 379 1
65 0 5 17 1 266 1 44 1 254 1 418 1
66 0 5 704 1 443 1 186 1 473 1 150 1
67 0 5 499 1 411 1 57 1 3 1 40 1
68 0 5 131 1 180 1 619 1 438 1 251 1
69 0 5 487 1 554 1 490 1 515 1 98 1
70 0 5 372 1 195 1 259 1 670 1 632 1
71 0 5 463 1 36 1 716 1 50 1 162 1
72 0 5 191 1 666 1 249 1 684 1 132 1
73 0 5 241 1 604 1 715 1 536 1 401 1
74 0 5 419 1 341 1 668 1 79 1 353 1
75 0 5 271 1 409 1 224 1 47 1 405 1
76 0 5 9 1 119 1 343 1 678 1 137 1
77 0 5 612 1 357 1 646 1 124 1 123 1
78 0 5 700 1 651 1 491 1 161 1 333 1
79 0 5 419 1 353 1 538 1 668 1 74 1
80 0 5 432 1 638 1 270 1 613 1 133 1
81 0 5 82 1 607 1 171 1 239 1 234 1
82 0 5 607 1 81 1 171 1 462 1 587 1
83 0 5 634 1 515 1 159 1 441 1 331 1
84 0 5 581 1 6 1 53 1 42 1 502 1
85 0 5 337 1 114 1 182 1 100 1 98 1
86 0 5 54 1 446 1 624 1 714 1 61 1
87 0 5 431 1 584 1 231 1 454 1 178 1
88 0 5 354 1 478 1 339 1 248 1 404 1
89 0 5 205 1 675 1 383 1 30 1 567 1
90 0 5 575 1 203 1 590 1 512 1 143 1
91 0 5 121 1 496 1 372 1 227 1 97 1
92 0 5 340 1 185 1 452 1 128 1 58 1
93 0 5 288 1 595 1 125 1 177 1 240 1
94 0 5 344 1 301 1 266 1 248 1 534 1
95 0 5 663 1 181 1 375 1 494 1 428 1
96 0 5 673 1 311 1 489 1 573 1 345 1
97 0 5 227 1 647 1 212 1 496 1 503 1
98 0 5 487 1 114 1 100 1 182 1 337 1
99 0 5 585 1 525 1 141 1 284 1 359 1
100 0 5 98 1 85 1 337 1 114 1 182 1
101 0 5 623 1 558 1 510 1 338 1 566 1
102 0 5 678 1 516 1 315 1 9 1 368 1
103 0 5 134 1 25 1 522 1 556 1 347 1
104 0 5 437 1 216 1 370 1 586 1 285 1
105 0 5 207 1 408 1 674 1 174 1 495 1
106 0 5 22 1 653 1 390 1 597 1 192 1
107 0 5 528 1 426 1 35 1 474 1 520 1
108 0 5 681 1 391 1 679 1 261 1 247 1
109 0 5 34 1 484 1 614 1 493 1 63 1
110 0 5 32 1 272 1 234 1 16 1 233 1
111 0 5 374 1 233 1 171 1 272 1 81 1
112 0 5 697 1 310 1 672 1 457 1 129 1
113 0 5 540 1 529 1 168 1 225 1 662 1
114 0 5 182 1 85 1 337 1 98 1 360 1
115 0 5 482 1 157 1 221 1 636 1 707 1
116 0 5 703 1 486 1 245 1 24 1 335 1
117 0 5 336 1 513 1 497 1 422 1 441 1
118 0 5 661 1 398 1 550 1 685 1 609 1
119 0 5 343 1 214 1 76 1 543 1 238 1
120 0 5 506 1 682 1 687 1 693 1 274 1
121 0 5 416 1 91 1 686 1 139 1 375 1
122 0 5 542 1 380 1 49 1 465 1 335 1
123 0 5 124 1 77 1 357 1 184 1 228 1
124 0 5 184 1 228 1 123 1 612 1 77 1
125 0 5 93 1 282 1 215 1 319 1 595 1
126 0 5 18 1 574 1 521 1 197 1 298 1
127 0 5 395 1 175 1 3 1 276 1 521 1
128 0 5 667 1 531 1 509 1 378 1 340 1
129 0 5 604 1 310 1 112 1 697 1 241 1
130 0 5 477 1 713 1 601 1 545 1 495 1
131 0 5 68 1 180 1 619 1 438 1 345 1
132 0 5 170 1 666 1 72 1 191 1 684 1
133 0 5 140 1 702 1 148 1 348 1 638 1
134 0 5 418 1 103 1 396 1 652 1 547 1
135 0 5 370 1 563 1 312 1 33 1 643 1
136 0 5 671 1 300 1 152 1 576 1 645 1
137 0 5 9 1 238 1 678 1 364 1 76 1
138 0 5 193 1 258 1 394 1 475 1 635 1
139 0 5 686 1 526 1 618 1 608 1 413 1
140 0 5 133 1 348 1 148 1 702 1 389 1
141 0 5 525 1 585 1 18 1 574 1 99 1
142 0 5 507 1 167 1 578 1 319 1 572 1
143 0 5 575 1 190 1 203 1 385 1 90 1
144 0 5 730 1 734 1 1 1 749 1 723 1
145 0 5 290 1 350 1 1 1 722 1 729 1
146 0 5 10 1 373 1 682 1 377 1 283 1
147 0 5 649 1 455 1 155 1 608 1 618 1
148 0 5 702 1 133 1 140 1 348 1 520 1
149 0 5 615 1 242 1 40 1 383 1 30 1
150 0 5 151 1 473 1 24 1 519 1 186 1
151 0 5 24 1 150 1 703 1 473 1 486 1
152 0 5 300 1 671 1 402 1 136 1 527 1
153 0 5 656 1 265 1 425 1 350 1 15 1
154 0 5 17 1 172 1 163 1 44 1 600 1
155 0 5 598 1 517 1 147 1 455 1 649 1
156 0 5 219 1 5 1 363 1 239 1 234 1
157 0 5 115 1 482 1 636 1 628 1 16 1
158 0 5 326 1 349 1 501 1 427 1 265 1
159 0 5 634 1 331 1 515 1 83 1 381 1
160 0 5 48 1 476 1 312 1 643 1 689 1
161 0 5 346 1 621 1 78 1 246 1 700 1
162 0 5 50 1 716 1 393 1 49 1 71 1
163 0 5 270 1 313 1 354 1 478 1 600 1
164 0 5 599 1 204 1 688 1 361 1 632 1
165 0 5 281 1 665 1 166 1 401 1 327 1
166 0 5 614 1 498 1 237 1 165 1 196 1
167 0 5 507 1 578 1 417 1 142 1 572 1
168 0 5 642 1 113 1 529 1 540 1 75 1
169 0 5 431 1 579 1 273 1 653 1 192 1
170 0 5 43 1 132 1 666 1 72 1 191 1
171 0 5 82 1 607 1 587 1 81 1 462 1
172 0 5 313 1 478 1 600 1 154 1 44 1
173 0 5 232 1 23 1 415 1 210 1 571 1
174 0 5 674 1 637 1 676 1 408 1 105 1
175 0 5 127 1 3 1 276 1 395 1 296 1
176 0 5 317 1 594 1 489 1 52 1 573 1
177 0 5 480 1 595 1 288 1 93 1 310 1
178 0 5 425 1 208 1 38 1 87 1 231 1
179 0 5 236 1 103 1 454 1 347 1 556 1
180 0 5 68 1 131 1 619 1 58 1 438 1
181 0 5 629 1 51 1 95 1 532 1 663 1
182 0 5 114 1 360 1 85 1 337 1 554 1
183 0 5 298 1 197 1 521 1 410 1 126 1
184 0 5 124 1 257 1 228 1 123 1 612 1
185 0 5 452 1 340 1 593 1 485 1 92 1
186 0 5 704 1 519 1 473 1 698 1 66 1
187 0 5 435 1 570 1 31 1 620 1 356 1
188 0 5 425 1 60 1 38 1 264 1 656 1
189 0 5 660 1 541 1 297 1 376 1 8 1
190 0 5 285 1 586 1 575 1 143 1 329 1
191 0 5 72 1 666 1 249 1 684 1 132 1
192 0 5 198 1 690 1 22 1 252 1 169 1
193 0 5 138 1 258 1 394 1 635 1 599 1
194 0 5 53 1 42 1 502 1 277 1 291 1
195 0 5 259 1 372 1 70 1 632 1 361 1
196 0 5 614 1 34 1 237 1 166 1 642 1
197 0 5 298 1 521 1 126 1 183 1 18 1
198 0 5 56 1 551 1 192 1 444 1 690 1
199 0 5 4 1 341 1 648 1 476 1 337 1
200 0 5 612 1 213 1 228 1 124 1 558 1
201 0 5 19 1 303 1 677 1 36 1 542 1
202 0 5 229 1 367 1 410 1 607 1 467 1
203 0 5 575 1 90 1 385 1 143 1 610 1
204 0 5 599 1 164 1 620 1 31 1 361 1
205 0 5 89 1 675 1 30 1 383 1 567 1
206 0 5 439 1 61 1 624 1 297 1 251 1
207 0 5 713 1 601 1 105 1 674 1 408 1
208 0 5 657 1 579 1 273 1 431 1 231 1
209 0 5 611 1 427 1 691 1 153 1 188 1
210 0 5 415 1 392 1 445 1 23 1 571 1
211 0 5 8 1 541 1 251 1 55 1 189 1
212 0 5 227 1 97 1 503 1 647 1 496 1
213 0 5 200 1 423 1 257 1 558 1 228 1
214 0 5 349 1 119 1 387 1 307 1 343 1
215 0 5 319 1 447 1 125 1 617 1 142 1
216 0 5 437 1 586 1 104 1 285 1 370 1
217 0 5 553 1 539 1 637 1 511 1 523 1
218 0 5 382 1 57 1 40 1 639 1 499 1
219 0 5 239 1 234 1 156 1 5 1 650 1
220 0 5 573 1 309 1 342 1 589 1 469 1
221 0 5 403 1 677 1 546 1 201 1 115 1
222 0 5 281 1 349 1 665 1 343 1 119 1
223 0 5 103 1 652 1 547 1 556 1 347 1
224 0 5 409 1 75 1 271 1 405 1 47 1
225 0 5 37 1 468 1 393 1 113 1 716 1
226 0 5 606 1 616 1 448 1 292 1 659 1
227 0 5 97 1 212 1 496 1 647 1 503 1
228 0 5 200 1 124 1 184 1 257 1 213 1
229 0 5 202 1 367 1 607 1 467 1 410 1
230 0 5 395 1 20 1 585 1 359 1 127 1
231 0 5 425 1 350 1 208 1 87 1 38 1
232 0 5 173 1 545 1 713 1 571 1 477 1
233 0 5 111 1 272 1 374 1 110 1 707 1
234 0 5 239 1 5 1 110 1 219 1 272 1
235 0 5 543 1 548 1 588 1 249 1 137 1
236 0 5 418 1 652 1 547 1 350 1 320 1
237 0 5 642 1 196 1 166 1 614 1 529 1
238 0 5 343 1 358 1 137 1 364 1 283 1
239 0 5 234 1 219 1 5 1 81 1 110 1
240 0 5 672 1 595 1 457 1 697 1 310 1
241 0 5 73 1 715 1 604 1 536 1 401 1
242 0 5 383 1 675 1 302 1 30 1 89 1
243 0 5 566 1 623 1 530 1 381 1 617 1
244 0 5 425 1 268 1 265 1 656 1 654 1
245 0 5 486 1 116 1 703 1 41 1 683 1
246 0 5 638 1 294 1 346 1 432 1 161 1
247 0 5 679 1 391 1 108 1 462 1 587 1
248 0 5 534 1 592 1 94 1 459 1 479 1
249 0 5 548 1 191 1 72 1 666 1 235 1
250 0 5 707 1 403 1 694 1 544 1 46 1
251 0 5 438 1 305 1 211 1 8 1 541 1
252 0 5 579 1 273 1 192 1 278 1 653 1
253 0 5 45 1 334 1 676 1 450 1 561 1
254 0 5 17 1 65 1 418 1 728 1 727 1
255 0 5 421 1 449 1 551 1 597 1 706 1
256 0 5 535 1 564 1 369 1 33 1 633 1
257 0 5 184 1 228 1 213 1 124 1 200 1
258 0 5 394 1 193 1 138 1 635 1 475 1
259 0 5 195 1 70 1 372 1 670 1 513 1
260 0 5 522 1 25 1 280 1 332 1 537 1
261 0 5 681 1 108 1 233 1 111 1 707 1
262 0 5 425 1 316 1 60 1 38 1 264 1
263 0 5 480 1 460 1 461 1 571 1 232 1
264 0 5 611 1 188 1 262 1 682 1 506 1
265 0 5 654 1 399 1 153 1 15 1 726 1
266 0 5 17 1 534 1 94 1 592 1 44 1
267 0 5 518 1 523 1 64 1 446 1 379 1
268 0 5 377 1 427 1 654 1 682 1 399 1
269 0 5 454 1 431 1 584 1 231 1 236 1
270 0 5 163 1 613 1 279 1 389 1 400 1
271 0 5 75 1 409 1 224 1 47 1 168 1
272 0 5 233 1 110 1 32 1 16 1 707 1
273 0 5 453 1 208 1 56 1 690 1 444 1
274 0 5 687 1 466 1 291 1 514 1 6 1
275 0 5 368 1 283 1 146 1 308 1 678 1
276 0 5 411 1 20 1 499 1 127 1 3 1
277 0 5 502 1 42 1 488 1 579 1 506 1
278 0 5 27 1 252 1 695 1 106 1 169 1
279 0 5 270 1 389 1 328 1 613 1 400 1
280 0 5 522 1 332 1 260 1 198 1 537 1
281 0 5 129 1 401 1 165 1 327 1 665 1
282 0 5 125 1 457 1 351 1 420 1 319 1
283 0 5 10 1 275 1 377 1 387 1 146 1
284 0 5 359 1 99 1 585 1 596 1 525 1
285 0 5 190 1 586 1 329 1 104 1 437 1
286 0 5 390 1 448 1 597 1 278 1 11 1
287 0 5 402 1 685 1 698 1 152 1 519 1
288 0 5 595 1 93 1 177 1 240 1 672 1
289 0 5 362 1 294 1 246 1 651 1 148 1
290 0 5 145 1 350 1 1 1 722 1 729 1
291 0 5 506 1 611 1 274 1 120 1 194 1
292 0 5 448 1 606 1 555 1 390 1 226 1
293 0 5 326 1 654 1 349 1 399 1 158 1
294 0 5 289 1 651 1 246 1 638 1 432 1
295 0 5 692 1 424 1 471 1 602 1 536 1
296 0 5 434 1 462 1 587 1 607 1 171 1
297 0 5 376 1 189 1 541 1 660 1 549 1
298 0 5 197 1 521 1 183 1 126 1 18 1
299 0 5 313 1 354 1 400 1 613 1 270 1
300 0 5 152 1 671 1 136 1 402 1 527 1
301 0 5 94 1 396 1 459 1 534 1 320 1
302 0 5 675 1 443 1 567 1 12 1 242 1
303 0 5 568 1 542 1 677 1 201 1 335 1
304 0 5 470 1 546 1 710 1 544 1 694 1
305 0 5 438 1 251 1 345 1 589 1 311 1
306 0 5 545 1 655 1 646 1 612 1 77 1
307 0 5 349 1 387 1 343 1 665 1 214 1
308 0 5 6 1 10 1 275 1 368 1 283 1
309 0 5 469 1 589 1 342 1 220 1 126 1
310 0 5 697 1 672 1 595 1 112 1 177 1
311 0 5 573 1 489 1 345 1 96 1 673 1
312 0 5 643 1 689 1 160 1 370 1 135 1
313 0 5 172 1 163 1 592 1 400 1 299 1
314 0 5 358 1 387 1 364 1 238 1 377 1
315 0 5 505 1 516 1 102 1 191 1 249 1
316 0 5 262 1 611 1 506 1 691 1 433 1
317 0 5 176 1 594 1 489 1 573 1 428 1
318 0 5 62 1 371 1 705 1 420 1 397 1
319 0 5 215 1 447 1 142 1 125 1 507 1
320 0 5 236 1 301 1 396 1 556 1 134 1
321 0 5 365 1 644 1 465 1 49 1 472 1
322 0 5 55 1 8 1 359 1 99 1 469 1
323 0 5 712 1 398 1 576 1 442 1 118 1
324 0 5 504 1 6 1 687 1 664 1 84 1
325 0 5 699 1 12 1 330 1 527 1 402 1
326 0 5 158 1 358 1 654 1 399 1 349 1
327 0 5 582 1 401 1 498 1 355 1 536 1
328 0 5 313 1 400 1 270 1 613 1 279 1
329 0 5 633 1 190 1 285 1 256 1 378 1
330 0 5 12 1 699 1 325 1 567 1 527 1
331 0 5 381 1 159 1 634 1 515 1 562 1
332 0 5 454 1 657 1 280 1 260 1 537 1
333 0 5 491 1 78 1 464 1 161 1 352 1
334 0 5 450 1 676 1 253 1 492 1 511 1
335 0 5 380 1 542 1 465 1 303 1 122 1
336 0 5 513 1 117 1 557 1 422 1 670 1
337 0 5 85 1 114 1 182 1 100 1 98 1
338 0 5 7 1 388 1 562 1 623 1 381 1
339 0 5 88 1 603 1 583 1 479 1 456 1
340 0 5 92 1 667 1 128 1 185 1 593 1
341 0 5 199 1 4 1 337 1 648 1 85 1
342 0 5 469 1 589 1 309 1 220 1 55 1
343 0 5 119 1 76 1 238 1 364 1 387 1
344 0 5 534 1 94 1 459 1 592 1 479 1
345 0 5 311 1 438 1 305 1 673 1 573 1
346 0 5 161 1 246 1 621 1 148 1 651 1
347 0 5 103 1 652 1 547 1 556 1 223 1
348 0 5 140 1 148 1 591 1 133 1 702 1
349 0 5 358 1 158 1 326 1 268 1 293 1
350 0 5 145 1 656 1 290 1 15 1 729 1
351 0 5 59 1 420 1 282 1 457 1 112 1
352 0 5 664 1 464 1 102 1 616 1 6 1
353 0 5 79 1 419 1 538 1 668 1 689 1
354 0 5 592 1 88 1 163 1 404 1 299 1
355 0 5 582 1 401 1 327 1 536 1 692 1
356 0 5 570 1 187 1 563 1 31 1 414 1
357 0 5 77 1 646 1 123 1 612 1 124 1
358 0 5 349 1 326 1 364 1 501 1 238 1
359 0 5 20 1 284 1 596 1 585 1 230 1
360 0 5 182 1 114 1 668 1 500 1 423 1
361 0 5 557 1 164 1 412 1 599 1 204 1
362 0 5 289 1 43 1 294 1 170 1 651 1
363 0 5 552 1 662 1 468 1 156 1 628 1
364 0 5 358 1 343 1 238 1 137 1 283 1
365 0 5 321 1 465 1 644 1 49 1 380 1
366 0 5 509 1 64 1 539 1 378 1 267 1
367 0 5 467 1 202 1 229 1 410 1 183 1
368 0 5 275 1 678 1 102 1 146 1 308 1
369 0 5 564 1 256 1 33 1 535 1 414 1
370 0 5 643 1 689 1 135 1 437 1 312 1
371 0 5 62 1 318 1 420 1 715 1 59 1
372 0 5 70 1 195 1 632 1 259 1 13 1
373 0 5 514 1 146 1 10 1 506 1 682 1
374 0 5 111 1 233 1 171 1 81 1 272 1
375 0 5 428 1 494 1 416 1 95 1 686 1
376 0 5 297 1 549 1 660 1 541 1 189 1
377 0 5 501 1 268 1 10 1 283 1 146 1
378 0 5 509 1 531 1 667 1 128 1 329 1
379 0 5 518 1 54 1 267 1 64 1 446 1
380 0 5 465 1 335 1 122 1 542 1 49 1
381 0 5 331 1 623 1 243 1 562 1 515 1
382 0 5 596 1 218 1 639 1 499 1 57 1
383 0 5 30 1 89 1 242 1 205 1 675 1
384 0 5 645 1 560 1 660 1 136 1 189 1
385 0 5 610 1 575 1 203 1 143 1 586 1
386 0 5 522 1 537 1 533 1 332 1 458 1
387 0 5 307 1 343 1 214 1 283 1 364 1
388 0 5 7 1 562 1 338 1 423 1 524 1
389 0 5 279 1 270 1 328 1 613 1 400 1
390 0 5 11 1 286 1 27 1 106 1 292 1
391 0 5 679 1 108 1 247 1 681 1 462 1
392 0 5 210 1 415 1 571 1 173 1 445 1
393 0 5 50 1 162 1 716 1 37 1 225 1
394 0 5 258 1 193 1 635 1 138 1 688 1
395 0 5 127 1 521 1 230 1 126 1 20 1
396 0 5 134 1 301 1 556 1 223 1 320 1
397 0 5 708 1 647 1 318 1 577 1 62 1
398 0 5 550 1 118 1 685 1 712 1 323 1
399 0 5 265 1 326 1 293 1 654 1 268 1
400 0 5 313 1 270 1 613 1 328 1 299 1
401 0 5 536 1 327 1 355 1 582 1 241 1
402 0 5 152 1 527 1 300 1 287 1 671 1
403 0 5 221 1 546 1 250 1 470 1 677 1
404 0 5 354 1 641 1 313 1 88 1 603 1
405 0 5 409 1 47 1 224 1 75 1 271 1
406 0 5 46 1 701 1 710 1 544 1 694 1
407 0 5 347 1 223 1 25 1 522 1 556 1
408 0 5 105 1 512 1 637 1 174 1 495 1
409 0 5 75 1 224 1 47 1 271 1 405 1
410 0 5 367 1 183 1 202 1 607 1 467 1
411 0 5 499 1 276 1 20 1 67 1 3 1
412 0 5 557 1 487 1 497 1 361 1 441 1
413 0 5 481 1 139 1 630 1 608 1 686 1
414 0 5 564 1 369 1 563 1 33 1 356 1
415 0 5 210 1 445 1 23 1 392 1 173 1
416 0 5 375 1 686 1 121 1 428 1 494 1
417 0 5 167 1 578 1 507 1 572 1 420 1
418 0 5 134 1 396 1 320 1 547 1 236 1
419 0 5 668 1 538 1 79 1 353 1 500 1
420 0 5 371 1 351 1 62 1 167 1 59 1
421 0 5 255 1 449 1 551 1 706 1 597 1
422 0 5 577 1 117 1 708 1 336 1 441 1
423 0 5 524 1 500 1 213 1 668 1 360 1
424 0 5 295 1 692 1 471 1 75 1 409 1
425 0 5 178 1 231 1 188 1 262 1 584 1
426 0 5 35 1 474 1 107 1 528 1 641 1
427 0 5 268 1 693 1 501 1 10 1 377 1
428 0 5 375 1 494 1 52 1 598 1 416 1
429 0 5 476 1 648 1 48 1 4 1 160 1
430 0 5 602 1 569 1 630 1 631 1 647 1
431 0 5 208 1 169 1 453 1 87 1 38 1
432 0 5 638 1 80 1 246 1 389 1 279 1
433 0 5 425 1 56 1 316 1 60 1 453 1
434 0 5 587 1 462 1 296 1 171 1 607 1
435 0 5 187 1 31 1 570 1 620 1 356 1
436 0 5 533 1 709 1 451 1 459 1 479 1
437 0 5 216 1 104 1 586 1 370 1 643 1
438 0 5 305 1 251 1 345 1 311 1 573 1
439 0 5 206 1 61 1 624 1 86 1 619 1
440 0 5 658 1 520 1 621 1 659 1 107 1
441 0 5 497 1 490 1 117 1 515 1 557 1
442 0 5 549 1 323 1 624 1 576 1 712 1
443 0 5 66 1 302 1 704 1 675 1 186 1
444 0 5 657 1 273 1 198 1 22 1 706 1
445 0 5 23 1 415 1 510 1 210 1 173 1
446 0 5 523 1 267 1 518 1 511 1 86 1
447 0 5 617 1 215 1 530 1 319 1 566 1
448 0 5 292 1 390 1 286 1 226 1 606 1
449 0 5 14 1 255 1 421 1 458 1 339 1
450 0 5 334 1 492 1 676 1 253 1 511 1
451 0 5 25 1 556 1 436 1 344 1 522 1
452 0 5 185 1 593 1 640 1 58 1 340 1
453 0 5 657 1 273 1 579 1 584 1 431 1
454 0 5 269 1 332 1 87 1 605 1 522 1
455 0 5 649 1 147 1 155 1 517 1 618 1
456 0 5 248 1 459 1 344 1 339 1 25 1
457 0 5 672 1 240 1 697 1 595 1 112 1
458 0 5 533 1 2 1 14 1 449 1 386 1
459 0 5 344 1 301 1 248 1 479 1 436 1
460 0 5 461 1 263 1 571 1 480 1 392 1
461 0 5 460 1 263 1 571 1 480 1 392 1
462 0 5 587 1 434 1 679 1 296 1 171 1
463 0 5 71 1 36 1 716 1 50 1 162 1
464 0 5 505 1 491 1 352 1 516 1 664 1
465 0 5 380 1 365 1 321 1 122 1 49 1
466 0 5 274 1 506 1 687 1 514 1 373 1
467 0 5 367 1 517 1 155 1 410 1 202 1
468 0 5 662 1 225 1 37 1 363 1 628 1
469 0 5 589 1 342 1 55 1 309 1 126 1
470 0 5 304 1 546 1 544 1 710 1 403 1
471 0 5 47 1 630 1 409 1 424 1 481 1
472 0 5 493 1 63 1 644 1 321 1 484 1
473 0 5 519 1 150 1 186 1 151 1 704 1
474 0 5 426 1 528 1 603 1 107 1 35 1
475 0 5 138 1 258 1 593 1 193 1 564 1
476 0 5 48 1 648 1 429 1 160 1 199 1
477 0 5 130 1 713 1 601 1 232 1 207 1
478 0 5 592 1 172 1 88 1 163 1 583 1
479 0 5 248 1 459 1 344 1 25 1 339 1
480 0 5 263 1 177 1 460 1 461 1 288 1
481 0 5 608 1 630 1 413 1 139 1 471 1
482 0 5 115 1 157 1 636 1 628 1 16 1
483 0 5 667 1 535 1 256 1 378 1 485 1
484 0 5 63 1 508 1 109 1 493 1 34 1
485 0 5 593 1 483 1 185 1 667 1 340 1
486 0 5 245 1 703 1 116 1 151 1 24 1
487 0 5 98 1 182 1 69 1 554 1 114 1
488 0 5 431 1 277 1 502 1 579 1 42 1
489 0 5 573 1 311 1 594 1 317 1 176 1
490 0 5 441 1 497 1 69 1 83 1 487 1
491 0 5 333 1 78 1 464 1 700 1 352 1
492 0 5 450 1 714 1 511 1 334 1 446 1
493 0 5 472 1 63 1 109 1 484 1 508 1
494 0 5 375 1 428 1 52 1 95 1 416 1
495 0 5 512 1 590 1 601 1 408 1 105 1
496 0 5 97 1 227 1 212 1 647 1 91 1
497 0 5 441 1 490 1 117 1 557 1 412 1
498 0 5 166 1 327 1 237 1 614 1 582 1
499 0 5 411 1 67 1 276 1 20 1 382 1
500 0 5 668 1 538 1 419 1 423 1 360 1
501 0 5 158 1 358 1 377 1 427 1 682 1
502 0 5 277 1 42 1 488 1 579 1 194 1
503 0 5 212 1 670 1 227 1 97 1 259 1
504 0 5 324 1 6 1 11 1 616 1 664 1
505 0 5 464 1 315 1 516 1 666 1 102 1
506 0 5 60 1 316 1 120 1 691 1 53 1
507 0 5 578 1 167 1 572 1 142 1 417 1
508 0 5 63 1 484 1 109 1 644 1 493 1
509 0 5 366 1 378 1 128 1 531 1 667 1
510 0 5 558 1 445 1 23 1 415 1 101 1
511 0 5 492 1 523 1 450 1 334 1 446 1
512 0 5 590 1 495 1 408 1 90 1 539 1
513 0 5 336 1 117 1 557 1 670 1 361 1
514 0 5 373 1 506 1 687 1 274 1 10 1
515 0 5 634 1 159 1 331 1 83 1 562 1
516 0 5 102 1 315 1 505 1 678 1 9 1
517 0 5 155 1 467 1 455 1 367 1 649 1
518 0 5 379 1 267 1 64 1 446 1 523 1
519 0 5 186 1 473 1 698 1 704 1 151 1
520 0 5 591 1 440 1 696 1 107 1 702 1
521 0 5 298 1 126 1 197 1 395 1 127 1
522 0 5 260 1 103 1 280 1 386 1 2 1
523 0 5 267 1 511 1 446 1 64 1 518 1
524 0 5 423 1 500 1 388 1 257 1 213 1
525 0 5 141 1 585 1 99 1 18 1 574 1
526 0 5 686 1 139 1 618 1 598 1 608 1
527 0 5 402 1 330 1 699 1 325 1 152 1
528 0 5 107 1 426 1 474 1 35 1 603 1
529 0 5 540 1 642 1 113 1 237 1 168 1
530 0 5 566 1 617 1 243 1 447 1 623 1
531 0 5 378 1 128 1 509 1 667 1 483 1
532 0 5 51 1 688 1 632 1 629 1 181 1
533 0 5 2 1 458 1 386 1 436 1 537 1
534 0 5 344 1 266 1 248 1 301 1 94 1
535 0 5 256 1 564 1 369 1 483 1 633 1
536 0 5 401 1 241 1 327 1 355 1 73 1
537 0 5 386 1 2 1 332 1 280 1 533 1
538 0 5 668 1 419 1 500 1 353 1 79 1
539 0 5 217 1 553 1 366 1 90 1 512 1
540 0 5 529 1 113 1 642 1 196 1 237 1
541 0 5 8 1 189 1 211 1 297 1 376 1
542 0 5 122 1 303 1 380 1 335 1 49 1
543 0 5 119 1 235 1 76 1 588 1 343 1
544 0 5 694 1 470 1 710 1 304 1 46 1
545 0 5 306 1 655 1 232 1 646 1 612 1
546 0 5 470 1 304 1 403 1 568 1 677 1
547 0 5 236 1 556 1 223 1 347 1 134 1
548 0 5 249 1 235 1 666 1 588 1 191 1
549 0 5 660 1 442 1 376 1 297 1 189 1
550 0 5 398 1 685 1 118 1 576 1 661 1
551 0 5 198 1 706 1 421 1 255 1 444 1
552 0 5 580 1 363 1 219 1 156 1 650 1
553 0 5 217 1 637 1 539 1 511 1 174 1
554 0 5 182 1 487 1 98 1 114 1 100 1
555 0 5 292 1 255 1 28 1 606 1 449 1
556 0 5 103 1 652 1 547 1 396 1 347 1
557 0 5 412 1 361 1 117 1 497 1 513 1
558 0 5 510 1 101 1 623 1 213 1 200 1
559 0 5 603 1 533 1 709 1 26 1 479 1
560 0 5 645 1 30 1 205 1 596 1 384 1
561 0 5 661 1 609 1 45 1 253 1 118 1
562 0 5 7 1 388 1 338 1 331 1 381 1
563 0 5 135 1 414 1 356 1 33 1 312 1
564 0 5 369 1 256 1 535 1 414 1 33 1
565 0 5 65 1 254 1 723 1 722 1 749 1
566 0 5 243 1 530 1 623 1 617 1 381 1
567 0 5 675 1 12 1 302 1 205 1 330 1
568 0 5 677 1 303 1 546 1 335 1 201 1
569 0 5 631 1 602 1 705 1 430 1 318 1
570 0 5 31 1 187 1 620 1 356 1 435 1
571 0 5 461 1 460 1 392 1 210 1 173 1
572 0 5 507 1 578 1 167 1 142 1 417 1
573 0 5 311 1 489 1 220 1 317 1 594 1
574 0 5 18 1 126 1 141 1 525 1 521 1
575 0 5 143 1 90 1 203 1 190 1 385 1
576 0 5 685 1 550 1 712 1 398 1 323 1
577 0 5 422 1 708 1 117 1 397 1 336 1
578 0 5 507 1 167 1 572 1 142 1 417 1
579 0 5 453 1 208 1 690 1 56 1 169 1
580 0 5 552 1 650 1 219 1 363 1 156 1
581 0 5 84 1 278 1 277 1 502 1 579 1
582 0 5 355 1 327 1 498 1 401 1 536 1
583 0 5 478 1 248 1 339 1 354 1 344 1
584 0 5 425 1 453 1 87 1 605 1 208 1
585 0 5 99 1 525 1 141 1 359 1 230 1
586 0 5 190 1 285 1 216 1 437 1 104 1
587 0 5 462 1 434 1 171 1 679 1 296 1
588 0 5 235 1 548 1 543 1 249 1 72 1
589 0 5 469 1 342 1 309 1 55 1 573 1
590 0 5 512 1 495 1 90 1 408 1 203 1
591 0 5 696 1 626 1 520 1 348 1 328 1
592 0 5 354 1 478 1 313 1 248 1 344 1
593 0 5 452 1 485 1 185 1 340 1 475 1
594 0 5 317 1 176 1 489 1 52 1 428 1
595 0 5 288 1 177 1 672 1 240 1 93 1
596 0 5 382 1 639 1 359 1 218 1 20 1
597 0 5 198 1 28 1 22 1 421 1 255 1
598 0 5 155 1 686 1 526 1 428 1 618 1
599 0 5 204 1 164 1 31 1 620 1 570 1
600 0 5 17 1 172 1 163 1 154 1 44 1
601 0 5 713 1 207 1 477 1 495 1 130 1
602 0 5 430 1 569 1 631 1 630 1 705 1
603 0 5 339 1 559 1 404 1 449 1 474 1
604 0 5 129 1 241 1 73 1 112 1 715 1
605 0 5 236 1 454 1 584 1 347 1 556 1
606 0 5 226 1 292 1 659 1 448 1 390 1
607 0 5 82 1 171 1 81 1 462 1 587 1
608 0 5 481 1 139 1 618 1 413 1 686 1
609 0 5 561 1 661 1 118 1 323 1 712 1
610 0 5 385 1 203 1 575 1 586 1 123 1
611 0 5 316 1 60 1 264 1 711 1 209 1
612 0 5 77 1 200 1 124 1 646 1 228 1
613 0 5 270 1 313 1 400 1 328 1 279 1
614 0 5 34 1 196 1 109 1 166 1 237 1
615 0 5 149 1 40 1 625 1 622 1 57 1
616 0 5 226 1 504 1 324 1 6 1 352 1
617 0 5 447 1 530 1 566 1 243 1 215 1
618 0 5 526 1 139 1 686 1 608 1 155 1
619 0 5 58 1 180 1 68 1 131 1 640 1
620 0 5 31 1 570 1 187 1 599 1 435 1
621 0 5 161 1 346 1 658 1 702 1 246 1
622 0 5 625 1 615 1 683 1 41 1 40 1
623 0 5 101 1 243 1 566 1 381 1 558 1
624 0 5 61 1 86 1 439 1 714 1 442 1
625 0 5 622 1 615 1 41 1 683 1 40 1
626 0 5 313 1 696 1 641 1 591 1 400 1
627 0 5 716 1 37 1 225 1 468 1 393 1
628 0 5 636 1 16 1 482 1 468 1 115 1
629 0 5 181 1 51 1 532 1 95 1 663 1
630 0 5 481 1 430 1 602 1 471 1 413 1
631 0 5 705 1 569 1 430 1 602 1 318 1
632 0 5 372 1 688 1 532 1 13 1 195 1
633 0 5 329 1 256 1 535 1 33 1 104 1
634 0 5 515 1 159 1 331 1 83 1 381 1
635 0 5 258 1 394 1 193 1 138 1 475 1
636 0 5 16 1 628 1 21 1 482 1 707 1
637 0 5 174 1 553 1 408 1 217 1 539 1
638 0 5 432 1 80 1 246 1 133 1 702 1
639 0 5 382 1 596 1 218 1 149 1 560 1
640 0 5 452 1 58 1 185 1 593 1 619 1
641 0 5 404 1 626 1 426 1 35 1 696 1
642 0 5 237 1 196 1 166 1 529 1 168 1
643 0 5 689 1 370 1 312 1 160 1 538 1
644 0 5 321 1 365 1 465 1 472 1 63 1
645 0 5 384 1 560 1 136 1 671 1 300 1
646 0 5 306 1 357 1 545 1 77 1 612 1
647 0 5 97 1 227 1 212 1 496 1 708 1
648 0 5 476 1 199 1 4 1 48 1 429 1
649 0 5 147 1 455 1 155 1 471 1 467 1
650 0 5 219 1 580 1 239 1 552 1 81 1
651 0 5 700 1 78 1 294 1 289 1 346 1
652 0 5 236 1 134 1 556 1 347 1 223 1
653 0 5 106 1 22 1 169 1 252 1 690 1
654 0 5 265 1 326 1 293 1 399 1 268 1
655 0 5 306 1 545 1 23 1 612 1 173 1
656 0 5 153 1 350 1 15 1 425 1 728 1
657 0 5 453 1 56 1 208 1 690 1 444 1
658 0 5 669 1 440 1 659 1 621 1 226 1
659 0 5 606 1 226 1 658 1 292 1 555 1
660 0 5 549 1 189 1 376 1 297 1 541 1
661 0 5 118 1 561 1 609 1 398 1 550 1
662 0 5 468 1 363 1 225 1 113 1 552 1
663 0 5 95 1 181 1 494 1 375 1 52 1
664 0 5 352 1 324 1 687 1 504 1 6 1
665 0 5 543 1 307 1 343 1 76 1 387 1
666 0 5 191 1 72 1 132 1 249 1 548 1
667 0 5 128 1 483 1 340 1 378 1 531 1
668 0 5 500 1 538 1 419 1 79 1 353 1
669 0 5 658 1 333 1 616 1 621 1 440 1
670 0 5 503 1 513 1 259 1 70 1 212 1
671 0 5 300 1 136 1 152 1 402 1 527 1
672 0 5 697 1 240 1 457 1 595 1 310 1
673 0 5 96 1 311 1 345 1 489 1 573 1
674 0 5 174 1 45 1 105 1 207 1 253 1
675 0 5 567 1 302 1 205 1 12 1 89 1
676 0 5 334 1 253 1 450 1 174 1 45 1
677 0 5 568 1 303 1 201 1 221 1 546 1
678 0 5 9 1 76 1 102 1 137 1 343 1
679 0 5 391 1 247 1 462 1 587 1 108 1
680 0 5 614 1 237 1 166 1 543 1 588 1
681 0 5 108 1 261 1 391 1 679 1 233 1
682 0 5 268 1 264 1 693 1 373 1 120 1
683 0 5 41 1 625 1 245 1 622 1 701 1
684 0 5 249 1 191 1 72 1 666 1 235 1
685 0 5 550 1 398 1 118 1 576 1 661 1
686 0 5 139 1 526 1 416 1 618 1 598 1
687 0 5 274 1 6 1 466 1 324 1 120 1
688 0 5 532 1 164 1 632 1 394 1 51 1
689 0 5 643 1 312 1 370 1 160 1 538 1
690 0 5 657 1 273 1 579 1 192 1 198 1
691 0 5 39 1 316 1 10 1 611 1 506 1
692 0 5 295 1 424 1 536 1 401 1 241 1
693 0 5 682 1 506 1 10 1 611 1 427 1
694 0 5 544 1 46 1 710 1 470 1 304 1
695 0 5 579 1 273 1 192 1 653 1 22 1
696 0 5 591 1 626 1 400 1 328 1 520 1
697 0 5 672 1 112 1 457 1 310 1 240 1
698 0 5 519 1 704 1 186 1 473 1 287 1
699 0 5 325 1 330 1 12 1 527 1 402 1
700 0 5 78 1 651 1 491 1 294 1 161 1
701 0 5 46 1 710 1 406 1 304 1 694 1
702 0 5 148 1 133 1 140 1 348 1 520 1
703 0 5 116 1 24 1 486 1 151 1 245 1
704 0 5 186 1 66 1 519 1 698 1 443 1
705 0 5 631 1 569 1 318 1 602 1 430 1
706 0 5 551 1 421 1 444 1 2 1 255 1
707 0 5 16 1 272 1 250 1 636 1 233 1
708 0 5 397 1 577 1 422 1 647 1 97 1
709 0 5 301 1 344 1 25 1 248 1 436 1
710 0 5 46 1 544 1 701 1 304 1 470 1
711 0 5 611 1 153 1 691 1 427 1 188 1
712 0 5 323 1 398 1 576 1 118 1 442 1
713 0 5 207 1 601 1 477 1 130 1 232 1
714 0 5 492 1 624 1 609 1 442 1 86 1
715 0 5 241 1 73 1 59 1 604 1 371 1
716 0 5 50 1 71 1 463 1 162 1 393 1
717 0 5 718 1 748 1 734 1 733 1 732 1
718 0 5 718 1 748 1 734 1 733 1 732 1
719 0 5 718 1 748 1 734 1 733 1 732 1
720 0 5 718 1 748 1 734 1 733 1 732 1
721 0 5 718 1 748 1 734 1 733 1 732 1
722 0 5 718 1 748 1 734 1 733 1 732 1
723 0 5 718 1 748 1 734 1 733 1 732 1
724 0 5 718 1 748 1 734 1 733 1 732 1
725 0 5 718 1 748 1 734 1 733 1 732 1
726 0 5 718 1 748 1 734 1 733 1 732 1
727 0 5 718 1 748 1 734 1 733 1 732 1
728 0 5 718 1 748 1 734 1 733 1 732 1
729 0 5 718 1 748 1 734 1 733 1 732 1
730 0 5 718 1 748 1 734 1 733 1 732 1
731 0 5 718 1 748 1 734 1 733 1 732 1
732 0 5 718 1 748 1 734 1 733 1 732 1
733 0 5 718 1 748 1 734 1 733 1 732 1
734 0 5 718 1 748 1 734 1 733 1 732 1
735 0 5 718 1 748 1 734 1 733 1 732 1
736 0 5 718 1 748 1 734 1 733 1 732 1
737 0 5 718 1 748 1 734 1 733 1 732 1
738 0 5 718 1 748 1 734 1 733 1 732 1
739 0 5 718 1 748 1 734 1 733 1 732 1
740 0 5 718 1 748 1 734 1 733 1 732 1
741 0 5 718 1 748 1 734 1 733 1 732 1
742 0 5 718 1 748 1 734 1 733 1 732 1
743 0 5 718 1 748 1 734 1 733 1 732 1
744 0 5 718 1 748 1 734 1 733 1 732 1
745 0 5 718 1 748 1 734 1 733 1 732 1
746 0 5 718 1 748 1 734 1 733 1 732 1
747 0 5 718 1 748 1 734 1 733 1 732 1
748 0 5 718 1 748 1 734 1 733 1 732 1
749 0 5 718 1 748 1 734 1 733 1 732 1
750 0 5 718 1 748 1 734 1 733 1 732 1
-1
EOF
